/* Objective function */
min: - 0.0054fpdi - 0.0054fpdo + 0.05apdi + 0.05apdo + 0.0002pi + 0.0002po - 0.5fsi - 0.5fso;

apdi = 0.0 hi + -0.0 li + 11.88386 ri + -0.00503 ci + -1.8 si + 0.0 ti + 0.1151 fTempIi + 0.00339 ami + -146.48658;
asi = 0.0 hi + 0.0 li + -4e-05 ri + -4e-05 ci + -1e-05 si + -0.0 ti + -7e-05 fTempIi + 3e-05 ami + 0.01054;
aTempOi = 0.0 hi + -0.0 li + 0.27327 ri + -0.02414 ci + -0.05367 si + 0.0 ti + 0.80025 fTempIi + -0.00011 ami + 6.96153;
fpdi = 0.0 hi + -0.0 li + 23.67112 ri + -19.90056 ci + -0.05195 si + 0.0 ti + -1.2305 fTempIi + 0.0001 ami + 660.17407;
fsi = 0.0 hi + 0.0 li + -0.00011 ri + -0.04527 ci + 2e-05 si + 0.0 ti + 0.00041 fTempIi + -0.0 ami + 2.90208;
fTempOi = 0.0 hi + 0.0 li + -0.2709 ri + 0.02399 ci + 0.05343 si + 0.0 ti + 0.21498 fTempIi + -0.0001 ami + 10.02811;
pi = 0.0 hi + -0.0 li + 673.25556 ri + 3.32222 ci + -72.71333 si + 0.0 ti + -0.0 fTempIi + -0.0 ami + 2697.03333;

apdo = 0.0 ho + -0.0 lo + 10.05506 ro + 0.00397 co + -1.43467 so + 0.0 to + 0.10626 fTempIo + 0.00302 amo + -115.30728;
aso = 0.0 ho + 0.0 lo + 0.0 ro + -0.0 co + 0.0 so + 0.0 to + 0.0 fTempIo + 3e-05 amo + 0.00571;
aTempOo = 0.0 ho + -0.0 lo + -0.31245 ro + 0.02485 co + 0.04656 so + 0.0 to + 0.75432 fTempIo + 0.00011 amo + -0.27088;
fpdo = 0.0 ho + -0.0 lo + 23.06702 ro + -19.7828 co + 0.04432 so + 0.0 to + -1.25001 fTempIo + -0.00011 amo + 655.6065;
fso = 0.0 ho + 0.0 lo + 0.00013 ro + -0.04523 co + -2e-05 so + 0.0 to + 0.00034 fTempIo + 0.0 amo + 2.90156;
fTempOo = 0.0 ho + -0.0 lo + 0.30757 ro + -0.0245 co + -0.04583 so + 0.0 to + 0.24964 fTempIo + 0.0001 amo + 12.49096;
po = 0.0 ho + -0.0 lo + 780.45 ro + 3.33333 co + -81.356 so + 0.0 to + -0.0 fTempIo + 0.0 amo + 4055.25333;

/* Variable bounds */
aTempOi > 18.6;
1 =r6i + r8i + r10i + r12i + r14i;
ri =6r6i + 8r8i + 10r10i + 12r12i + 14r14i;
1 =s25i + s30i + s40i;
si =25s25i + 30s30i + 40s40i;
ti = 1;
apdi > 100;
apdi < 300;
asi > 0;
asi < 3;
aTempOi > 5;
aTempOi < 25;
fpdi > 100;
fpdi < 300;
fsi > 0;
fsi < 1.25;
fTempOi > 5;
fTempOi < 25;
pi > 0;
ri > 6;
ri < 14;
ci > 1;
ci < 38;
si > 25;
si < 60;
ti > 1;
ti < 3;
fTempIi > 5;
fTempIi < 25;

/* aTempOo < 11.4; */
1 =r6o + r8o + r10o + r12o + r14o;
ro =6r6o + 8r8o + 10r10o + 12r12o + 14r14o;
1 =s30o + s40o + s50o + s60o;
so =30s30o + 40s40o + 50s50o + 60s60o;
to = 3;
apdo > 100;
apdo < 300;
aso > 0;
aso < 3;
aTempOo > 5;
aTempOo < 25;
fpdo > 100;
fpdo < 300;
fso > 0;
fso < 1.25;
fTempOo > 5;
fTempOo < 25;
po > 0;
ro > 6;
ro < 14;
co > 1;
co < 38;
so > 25;
so < 60;
to > 1;
to < 3;
fTempIo > 5;
fTempIo < 25;
int hi,li,si,ti,ci,ri,ami;
int ho,lo,so,to,co,ro,amo;
bin s25i,s30i,s40i,s50i,s60i,r6i,r8i,r10i,r12i,r14i;
bin s25o,s30o,s40o,s50o,s60o,r6o,r8o,r10o,r12o,r14o;
